$ nonogram instance, generated by: nonogen 10 5 0.40 0.9 0.4 806174772
$ .....
$ #...#
$ .###.
$ #...#
$ #.#..
$ .##..
$ ...##
$ ...##
$ ..###
$ .#.#.
letting m be 10
letting n be 5
letting rowRules be [
sequence(),
sequence(1,1),
sequence(3),
sequence(1,1),
sequence(1,1),
sequence(2),
sequence(2),
sequence(2),
sequence(3),
sequence(1,1)]
letting colRules be [
sequence(1,2),
sequence(1,1,1),
sequence(1,2,1),
sequence(1,4),
sequence(1,1,3)]
letting r be 3
